
Gurobi 9.1.2 (win64) logging started Tue Dec  7 14:02:56 2021

Gurobi Optimizer version 9.1.2 build v9.1.2rc0 (win64)
Thread count: 8 physical cores, 8 logical processors, using up to 8 threads
Optimize a model with 1 rows, 262 columns and 261 nonzeros
Model fingerprint: 0x2a32de03
Variable types: 1 continuous, 261 integer (261 binary)
Coefficient statistics:
  Matrix range     [1e+00, 1e+01]
  Objective range  [1e+00, 1e+00]
  Bounds range     [8e+01, 8e+01]
  RHS range        [1e+01, 1e+01]
Presolve time: 0.00s
Presolved: 1 rows, 262 columns, 261 nonzeros
Variable types: 1 continuous, 261 integer (261 binary)

Root simplex log...

Iteration    Objective       Primal Inf.    Dual Inf.      Time
       0   -8.0367179e+01   8.596267e-02   0.000000e+00     15s
       3   -8.0367179e+01   0.000000e+00   0.000000e+00     15s

Root relaxation: objective -8.036718e+01, 3 iterations, 0.00 seconds

    Nodes    |    Current Node    |     Objective Bounds      |     Work
 Expl Unexpl |  Obj  Depth IntInf | Incumbent    BestBd   Gap | It/Node Time

     0     0  -80.36718    0    3          -  -80.36718      -     -   16s
H    0     0                       0.8688501  -80.36718  9350%     -   16s
H    0     0                       0.5943926  -80.36718      -     -   16s
     0     0  -77.60494    0    3    0.59439  -77.60494      -     -   16s
     0     0  -54.73752    0    5    0.59439  -54.73752  9309%     -   19s
     0     0  -53.08127    0    7    0.59439  -53.08127  9030%     -   19s
     0     0  -51.77031    0    7    0.59439  -51.77031  8810%     -   23s
     0     0  -51.76337    0    8    0.59439  -51.76337  8809%     -   23s
     0     0  -47.55566    0    9    0.59439  -47.55566  8101%     -   23s
     0     0  -47.52552    0    7    0.59439  -47.52552  8096%     -   23s
     0     0  -44.33057    0    9    0.59439  -44.33057  7558%     -   23s
     0     0  -44.33057    0    5    0.59439  -44.33057  7558%     -   23s
     0     0  -36.09697    0    6    0.59439  -36.09697  6173%     -   23s
H    0     0                       0.5943926  -36.09697  6173%     -   23s
     0     0  -34.22319    0    6    0.59439  -34.22319  5858%     -   23s
     0     0  -34.22243    0    7    0.59439  -34.22243  5858%     -   23s
     0     0  -34.19693    0    5    0.59439  -34.19693  5853%     -   23s
     0     0  -34.13759    0    6    0.59439  -34.13759  5843%     -   23s
     0     0  -33.74307    0    4    0.59439  -33.74307  5777%     -   23s
     0     0  -33.71578    0    5    0.59439  -33.71578  5772%     -   23s
     0     0  -33.61617    0    5    0.59439  -33.61617  5756%     -   23s
     0     0  -33.56734    0    6    0.59439  -33.56734  5747%     -   23s
     0     0  -31.91851    0    6    0.59439  -31.91851  5470%     -   24s
     0     0  -31.56185    0    7    0.59439  -31.56185  5410%     -   24s
     0     0  -31.49376    0    7    0.59439  -31.49376  5398%     -   24s
     0     0  -31.37797    0    7    0.59439  -31.37797  5379%     -   24s
     0     0  -31.29155    0    8    0.59439  -31.29155  5364%     -   24s
     0     0  -31.26906    0    8    0.59439  -31.26906  5361%     -   24s
     0     0  -31.26441    0    8    0.59439  -31.26441  5360%     -   24s
     0     0  -31.18606    0    8    0.59439  -31.18606  5347%     -   24s
     0     0  -31.18120    0    8    0.59439  -31.18120  5346%     -   24s
     0     0  -31.17732    0    9    0.59439  -31.17732  5345%     -   24s
     0     0  -31.17361    0    8    0.59439  -31.17361  5345%     -   24s
     0     2  -31.17361    0    8    0.59439  -31.17361  5345%     -   24s

Cutting planes:
  Gomory: 1
  Cover: 4
  MIR: 10
  Lazy constraints: 3

Explored 62 nodes (360 simplex iterations) in 24.56 seconds
Thread count was 8 (of 8 available processors)

Solution count 3: 0.594393 0.594393 0.86885 

Optimal solution found (tolerance 1.00e-04)
Best objective 5.943925502156e-01, best bound 5.943925502156e-01, gap 0.0000%

User-callback calls 369, time in user-callback 28.08 sec
